








































































































40 35 26 59 55 11 4 50 49 
1 31 24 75 20 9 2 
25 57 66 19 3 46 32 10 
58 37 65 47 15 27 14 73 
17 72 21 69 67 62 52 74 
44 5 48 36 63 45 22 39 
7 64 54 70 41 33 76 61 
56 51 12 53 34 18 6 
8 0 28 13 30 60 68 
16 71 23 29 43 42 38 
